(declare-fun src_t_NEW () (_ BitVec 2))
(declare-fun action_NEW () (_ BitVec 3))
(assert (forall ((action_s1_FILL (_ BitVec 3))
         (action_s1_FILL_SYMBOLIC (_ BitVec 3))
         (elM_s_0_element1 (_ BitVec 2))
         (elM_s_0_element1_SYMBOLIC (_ BitVec 2))
         (elM_s_1_element1 (_ BitVec 2))
         (elM_s_1_element1_SYMBOLIC (_ BitVec 2))
         (src_1_s_FILL (_ BitVec 2))
         (src_1_s_FILL_SYMBOLIC (_ BitVec 2)))
  (exists ((elM_s_0_1 (_ BitVec 2))
           (elM_s_0_1_SYMBOLIC (_ BitVec 2))
           (elM_s_1_1 (_ BitVec 2))
           (elM_s_1_1_SYMBOLIC (_ BitVec 2))
           (elM_t_0_1 (_ BitVec 2))
           (elM_t_0_1_SYMBOLIC (_ BitVec 2))
           (elM_t_1_1 (_ BitVec 2))
           (elM_t_1_1_SYMBOLIC (_ BitVec 2))
           (op (_ BitVec 2))
           (op_SYMBOLIC (_ BitVec 2))
           (src (_ BitVec 2))
           (src_SYMBOLIC (_ BitVec 2)))
    (let ((a!1 (and (and (= src src_SYMBOLIC) (= op_SYMBOLIC #b00))
                    (= elM_t_1_1 elM_t_1_1_SYMBOLIC)
                    (= elM_t_0_1 elM_t_0_1_SYMBOLIC)))
          (a!2 (and (and (= src src_SYMBOLIC) (= op_SYMBOLIC #b01))
                    (= elM_t_1_1 elM_t_1_1_SYMBOLIC)
                    (= elM_t_0_1 elM_t_0_1_SYMBOLIC)))
          (a!3 (not (and (not (= elM_t_0_1 src)) (not (= elM_t_1_1 src)))))
          (a!4 (and (and (= src src_SYMBOLIC) (= op op_SYMBOLIC))
                    (= elM_t_1_1 elM_t_1_1_SYMBOLIC)
                    (= elM_t_0_1 elM_t_0_1_SYMBOLIC)))
          (a!6 (or (not (= elM_s_1_1 src))
                   (and (and (= src src_SYMBOLIC) (= op_SYMBOLIC #b00))
                        (= elM_s_1_1 elM_s_1_1_SYMBOLIC)
                        (= elM_s_0_1 elM_s_0_1_SYMBOLIC))))
          (a!7 (or (not (= elM_s_0_1 src))
                   (and (and (= src src_SYMBOLIC) (= op_SYMBOLIC #b01))
                        (= elM_s_1_1 elM_s_1_1_SYMBOLIC)
                        (= elM_s_0_1 elM_s_0_1_SYMBOLIC))))
          (a!8 (not (and (not (= elM_s_0_1 src)) (not (= elM_s_1_1 src)))))
          (a!11 (not (and (= elM_t_1_1 src) (not (= src src_t_NEW)))))
          (a!12 (not (and (= elM_t_0_1 src) (not (= src src_t_NEW)))))
          (a!17 (not (and (= elM_s_1_element1 src) (not (= src src_1_s_FILL)))))
          (a!18 (and (and (= src_1_s_FILL src_1_s_FILL_SYMBOLIC)
                          (= src src_SYMBOLIC))
                     (= op_SYMBOLIC #b00)
                     (= elM_s_1_element1 elM_s_1_element1_SYMBOLIC)
                     (= elM_s_0_element1 elM_s_0_element1_SYMBOLIC)
                     (= action_s1_FILL action_s1_FILL_SYMBOLIC)))
          (a!19 (not (and (= elM_s_0_element1 src) (not (= src src_1_s_FILL)))))
          (a!20 (and (and (= src_1_s_FILL src_1_s_FILL_SYMBOLIC)
                          (= src src_SYMBOLIC))
                     (= op_SYMBOLIC #b01)
                     (= elM_s_1_element1 elM_s_1_element1_SYMBOLIC)
                     (= elM_s_0_element1 elM_s_0_element1_SYMBOLIC)
                     (= action_s1_FILL action_s1_FILL_SYMBOLIC))))
    (let ((a!5 (and (not (and (= elM_t_0_1 src) (= elM_t_1_1 src)))
                    (not (and (= elM_t_1_1 src) (= elM_t_0_1 src)))
                    (or (not (= elM_t_1_1 src)) a!1)
                    (or (not (= elM_t_0_1 src)) a!2)
                    (or a!3 a!4)))
          (a!9 (or a!8
                   (and (and (= src src_SYMBOLIC) (= op op_SYMBOLIC))
                        (= elM_s_1_1 elM_s_1_1_SYMBOLIC)
                        (= elM_s_0_1 elM_s_0_1_SYMBOLIC))))
          (a!13 (or (not (and (= action_NEW #b001) (= src src_t_NEW))) a!1))
          (a!14 (or (not (and (= action_NEW #b000) (= src src_t_NEW))) a!2))
          (a!15 (and (not (and (= action_NEW #b000) (= src src_t_NEW)))
                     (not (and (= action_NEW #b001) (= src src_t_NEW)))
                     a!12
                     a!11))
          (a!21 (or (not (and (= action_s1_FILL #b001) (= src src_1_s_FILL)))
                    a!18))
          (a!22 (or (not (and (= action_s1_FILL #b000) (= src src_1_s_FILL)))
                    a!20))
          (a!23 (and (not (and (= action_s1_FILL #b000) (= src src_1_s_FILL)))
                     (not (and (= action_s1_FILL #b001) (= src src_1_s_FILL)))
                     a!19
                     a!17)))
    (let ((a!10 (and (not (and (= elM_s_0_1 src) (= elM_s_1_1 src)))
                     (not (and (= elM_s_1_1 src) (= elM_s_0_1 src)))
                     a!6
                     a!7
                     a!9))
          (a!16 (and (or (= action_NEW #b000) (= action_NEW #b001))
                     (not (and (= elM_t_0_1 src) (= elM_t_1_1 src)))
                     (not (and (= elM_t_1_1 src) (= elM_t_0_1 src)))
                     (or a!11 a!1)
                     (or a!12 a!2)
                     a!13
                     a!14
                     (or (not a!15) a!4)))
          (a!24 (or (not a!23)
                    (and (and (= src_1_s_FILL src_1_s_FILL_SYMBOLIC)
                              (= src src_SYMBOLIC))
                         (= op op_SYMBOLIC)
                         (= elM_s_1_element1 elM_s_1_element1_SYMBOLIC)
                         (= elM_s_0_element1 elM_s_0_element1_SYMBOLIC)
                         (= action_s1_FILL action_s1_FILL_SYMBOLIC)))))
    (let ((a!25 (and (not (and (= elM_s_0_element1 src)
                               (= elM_s_1_element1 src)))
                     (not (and (= elM_s_1_element1 src)
                               (= elM_s_0_element1 src)))
                     (or a!17 a!18)
                     (or a!19 a!20)
                     a!21
                     a!22
                     a!24)))
    (let ((a!26 (not (and (or (not a!16) a!25) (or (not a!25) a!16)))))
      (and (or (not a!5) a!10) (or (not a!10) a!5) a!26)))))))))
         
(check-sat-using (then qe bit-blast sat))